Route #1: 67 46 34 52 27 13 57 15 29 45
Route #2: 48 5 37 20 70 60 71 69 36 47 21
Route #3: 7 35 59 11 66 65 38
Route #4: 72 10 31 39 9 32 40 17
Route #5: 51 3 44 50 25 55 18 24 49 16 6 68
Route #6: 75 4 30 74 28 62 73 1 33
Route #7: 63 23 56 41 43 42 64 22 61 2
Route #8: 8 54 19 14 53 58 12 26
Cost 783